c ! encoding i-pc 343
p cnf 530 2924
-344 0
344 -345 0
-31 -346 0
32 -346 0
-33 -346 0
-34 -346 0
-39 -346 0
-40 -346 0
41 -346 0
-42 -346 0
-45 -346 0
-47 -346 0
-48 -346 0
49 -346 0
52 -346 0
-53 -346 0
-55 -346 0
-59 -346 0
-60 -346 0
61 -346 0
-63 -346 0
73 -346 0
-74 -346 0
-75 -346 0
-76 -346 0
-87 -346 0
-88 -346 0
-89 -346 0
90 -346 0
-93 -346 0
95 -346 0
-96 -346 0
-97 -346 0
-100 -346 0
103 -346 0
-107 -346 0
108 -346 0
-109 -346 0
-111 -346 0
120 -346 0
-123 -346 0
-124 -346 0
-125 -346 0
-126 -346 0
130 -346 0
-131 -346 0
-132 -346 0
-139 -346 0
-143 -346 0
144 -346 0
-147 -346 0
-151 -346 0
-153 -346 0
-154 -346 0
-157 -346 0
159 -346 0
-167 -346 0
-170 -346 0
171 -346 0
173 -346 0
-178 -346 0
-180 -346 0
-181 -346 0
184 -346 0
-185 -346 0
-200 -346 0
201 -346 0
-204 -346 0
-214 -346 0
-215 -346 0
218 -346 0
-219 -346 0
221 -346 0
-222 -346 0
-225 -346 0
-226 -346 0
229 -346 0
-232 -346 0
246 -346 0
-248 -346 0
-249 -346 0
-258 -346 0
-259 -346 0
260 -346 0
-263 -346 0
-264 -346 0
-266 -346 0
-267 -346 0
270 -346 0
271 -346 0
-272 -346 0
-274 -346 0
-277 -346 0
280 -346 0
-284 -346 0
-285 -346 0
286 -346 0
-287 -346 0
-288 -346 0
-303 -346 0
-304 -346 0
305 -346 0
-306 -346 0
-310 -346 0
-311 -346 0
-312 -346 0
313 -346 0
-315 -346 0
316 -346 0
-319 -346 0
-320 -346 0
322 -346 0
-327 -346 0
-329 -346 0
-331 -346 0
332 -346 0
-337 -346 0
338 -346 0
-339 -346 0
346 -347 0
146 -347 0
344 -348 0
347 348 -349 0
-51 -350 0
-58 -350 0
-77 -350 0
-122 -350 0
-156 -350 0
-160 -350 0
162 -350 0
-308 -350 0
349 -351 0
350 -351 0
351 -352 0
65 -352 0
344 -353 0
352 353 -354 0
-44 -355 0
-101 -355 0
-177 -355 0
-213 -355 0
-227 -355 0
-233 -355 0
-235 -355 0
-239 -355 0
-247 -355 0
-279 -355 0
-323 -355 0
354 -356 0
355 -356 0
356 -357 0
234 -357 0
344 -358 0
31 -359 0
-32 -359 0
-33 -359 0
-34 -359 0
-39 -359 0
-40 -359 0
-41 -359 0
42 -359 0
-44 -359 0
-45 -359 0
47 -359 0
-48 -359 0
-49 -359 0
-51 -359 0
-52 -359 0
-53 -359 0
55 -359 0
-58 -359 0
-59 -359 0
60 -359 0
-61 -359 0
-63 -359 0
65 -359 0
-73 -359 0
74 -359 0
-75 -359 0
-76 -359 0
-77 -359 0
-87 -359 0
-88 -359 0
89 -359 0
-90 -359 0
-93 -359 0
-95 -359 0
-96 -359 0
97 -359 0
100 -359 0
-101 -359 0
-103 -359 0
-107 -359 0
-108 -359 0
109 -359 0
-111 -359 0
-120 -359 0
-122 -359 0
123 -359 0
-124 -359 0
-125 -359 0
126 -359 0
-130 -359 0
-131 -359 0
-132 -359 0
-139 -359 0
-143 -359 0
144 -359 0
-146 -359 0
147 -359 0
-151 -359 0
-153 -359 0
-154 -359 0
-156 -359 0
-157 -359 0
159 -359 0
-160 -359 0
162 -359 0
167 -359 0
-170 -359 0
-171 -359 0
-173 -359 0
-177 -359 0
178 -359 0
-180 -359 0
-181 -359 0
184 -359 0
-185 -359 0
200 -359 0
-201 -359 0
-204 -359 0
-213 -359 0
214 -359 0
-215 -359 0
-218 -359 0
-219 -359 0
-221 -359 0
-222 -359 0
225 -359 0
-226 -359 0
-227 -359 0
229 -359 0
-232 -359 0
233 -359 0
-235 -359 0
-239 -359 0
247 -359 0
-248 -359 0
-249 -359 0
-258 -359 0
-259 -359 0
-260 -359 0
263 -359 0
-264 -359 0
-266 -359 0
267 -359 0
-270 -359 0
-271 -359 0
272 -359 0
-274 -359 0
-277 -359 0
280 -359 0
-284 -359 0
285 -359 0
-286 -359 0
-287 -359 0
-288 -359 0
-303 -359 0
-304 -359 0
-305 -359 0
306 -359 0
-308 -359 0
-310 -359 0
-311 -359 0
312 -359 0
-313 -359 0
315 -359 0
-319 -359 0
-320 -359 0
323 -359 0
-327 -359 0
-329 -359 0
-331 -359 0
332 -359 0
-337 -359 0
338 -359 0
-339 -359 0
359 -360 0
-279 -360 0
358 360 -361 0
-246 -362 0
-316 -362 0
-322 -362 0
361 -363 0
362 -363 0
363 -364 0
-234 -364 0
357 364 -365 0
365 -366 0
345 366 -367 0
-56 -368 0
-66 -368 0
-104 -368 0
-140 -368 0
-152 -368 0
-172 -368 0
-175 -368 0
-179 -368 0
-193 -368 0
-194 -368 0
-195 -368 0
-198 -368 0
-206 -368 0
207 -368 0
-210 -368 0
-217 -368 0
-224 -368 0
-231 -368 0
-253 -368 0
255 -368 0
-291 -368 0
-326 -368 0
-330 -368 0
-340 -368 0
367 -369 0
368 -369 0
369 -370 0
199 -370 0
344 -371 0
344 -372 0
344 -373 0
-31 -374 0
-32 -374 0
33 -374 0
-34 -374 0
-39 -374 0
-40 -374 0
-41 -374 0
42 -374 0
-44 -374 0
-45 -374 0
48 -374 0
-49 -374 0
51 -374 0
-52 -374 0
-53 -374 0
-55 -374 0
-56 -374 0
-58 -374 0
-59 -374 0
60 -374 0
-61 -374 0
-63 -374 0
-65 -374 0
66 -374 0
-73 -374 0
-74 -374 0
-75 -374 0
-76 -374 0
77 -374 0
-87 -374 0
-88 -374 0
89 -374 0
-90 -374 0
-93 -374 0
95 -374 0
-96 -374 0
-97 -374 0
-100 -374 0
101 -374 0
-103 -374 0
-104 -374 0
107 -374 0
-108 -374 0
-109 -374 0
-111 -374 0
-120 -374 0
122 -374 0
-123 -374 0
-124 -374 0
-125 -374 0
-126 -374 0
-130 -374 0
-131 -374 0
132 -374 0
139 -374 0
-140 -374 0
-143 -374 0
-144 -374 0
-147 -374 0
151 -374 0
-152 -374 0
-154 -374 0
-156 -374 0
157 -374 0
-159 -374 0
160 -374 0
-162 -374 0
-167 -374 0
170 -374 0
-171 -374 0
-172 -374 0
175 -374 0
-177 -374 0
-178 -374 0
-179 -374 0
181 -374 0
-184 -374 0
-185 -374 0
-201 -374 0
-204 -374 0
206 -374 0
-207 -374 0
210 -374 0
-213 -374 0
214 -374 0
-217 -374 0
-218 -374 0
-219 -374 0
-221 -374 0
-222 -374 0
224 -374 0
-225 -374 0
226 -374 0
-227 -374 0
-229 -374 0
-231 -374 0
-232 -374 0
-233 -374 0
-234 -374 0
-235 -374 0
239 -374 0
247 -374 0
-248 -374 0
-249 -374 0
253 -374 0
-255 -374 0
258 -374 0
-259 -374 0
-260 -374 0
264 -374 0
-266 -374 0
-267 -374 0
-270 -374 0
-271 -374 0
-272 -374 0
274 -374 0
-277 -374 0
-279 -374 0
280 -374 0
-284 -374 0
-287 -374 0
-288 -374 0
291 -374 0
-303 -374 0
-304 -374 0
-305 -374 0
306 -374 0
-310 -374 0
311 -374 0
-312 -374 0
-313 -374 0
-316 -374 0
319 -374 0
-320 -374 0
-326 -374 0
-327 -374 0
-330 -374 0
331 -374 0
-332 -374 0
374 -375 0
323 -375 0
-31 -376 0
-32 -376 0
-33 -376 0
34 -376 0
-39 -376 0
40 -376 0
-41 -376 0
-42 -376 0
45 -376 0
-48 -376 0
-49 -376 0
-52 -376 0
53 -376 0
-55 -376 0
-56 -376 0
-58 -376 0
-59 -376 0
-60 -376 0
-61 -376 0
63 -376 0
-66 -376 0
-73 -376 0
-74 -376 0
75 -376 0
-76 -376 0
-77 -376 0
87 -376 0
-88 -376 0
-89 -376 0
-90 -376 0
-93 -376 0
-95 -376 0
96 -376 0
-97 -376 0
-100 -376 0
-101 -376 0
-103 -376 0
104 -376 0
107 -376 0
-109 -376 0
-111 -376 0
-120 -376 0
-122 -376 0
-123 -376 0
-124 -376 0
125 -376 0
-126 -376 0
130 -376 0
-131 -376 0
-132 -376 0
139 -376 0
-143 -376 0
-144 -376 0
151 -376 0
-152 -376 0
154 -376 0
-156 -376 0
-157 -376 0
-159 -376 0
-160 -376 0
162 -376 0
-167 -376 0
-170 -376 0
171 -376 0
-172 -376 0
-175 -376 0
-177 -376 0
179 -376 0
181 -376 0
-184 -376 0
-185 -376 0
-201 -376 0
204 -376 0
-206 -376 0
207 -376 0
-210 -376 0
213 -376 0
-214 -376 0
-217 -376 0
-218 -376 0
-219 -376 0
221 -376 0
-222 -376 0
-224 -376 0
226 -376 0
-227 -376 0
-229 -376 0
-231 -376 0
-232 -376 0
-233 -376 0
-235 -376 0
239 -376 0
-248 -376 0
249 -376 0
-253 -376 0
255 -376 0
-259 -376 0
260 -376 0
264 -376 0
-266 -376 0
-267 -376 0
-270 -376 0
-271 -376 0
-274 -376 0
277 -376 0
287 -376 0
-288 -376 0
303 -376 0
-304 -376 0
-305 -376 0
-306 -376 0
-310 -376 0
311 -376 0
-312 -376 0
-313 -376 0
-319 -376 0
320 -376 0
326 -376 0
-327 -376 0
376 -377 0
65 -377 0
344 -378 0
377 378 -379 0
-44 -380 0
-51 -380 0
-108 -380 0
-140 -380 0
-147 -380 0
-178 -380 0
-225 -380 0
-234 -380 0
-247 -380 0
-258 -380 0
-272 -380 0
279 -380 0
-280 -380 0
-284 -380 0
-291 -380 0
-316 -380 0
330 -380 0
-331 -380 0
-332 -380 0
379 -381 0
380 -381 0
381 -382 0
-323 -382 0
375 382 -383 0
-47 -384 0
-146 -384 0
-173 -384 0
-180 -384 0
-195 -384 0
-198 -384 0
-215 -384 0
-285 -384 0
383 -385 0
384 -385 0
385 -386 0
193 -386 0
344 -387 0
-32 -388 0
-33 -388 0
34 -388 0
39 -388 0
-40 -388 0
-41 -388 0
-42 -388 0
-45 -388 0
47 -388 0
-48 -388 0
-49 -388 0
52 -388 0
-53 -388 0
-56 -388 0
-60 -388 0
-61 -388 0
63 -388 0
-74 -388 0
75 -388 0
-76 -388 0
-87 -388 0
-88 -388 0
89 -388 0
-90 -388 0
93 -388 0
-95 -388 0
-96 -388 0
-97 -388 0
-100 -388 0
-101 -388 0
104 -388 0
108 -388 0
-109 -388 0
-111 -388 0
-120 -388 0
-122 -388 0
-123 -388 0
124 -388 0
-125 -388 0
-126 -388 0
-130 -388 0
-131 -388 0
132 -388 0
-139 -388 0
140 -388 0
-143 -388 0
-144 -388 0
146 -388 0
-152 -388 0
-154 -388 0
-156 -388 0
157 -388 0
-159 -388 0
162 -388 0
-167 -388 0
-170 -388 0
172 -388 0
-173 -388 0
177 -388 0
-179 -388 0
180 -388 0
-181 -388 0
-184 -388 0
201 -388 0
-204 -388 0
-206 -388 0
213 -388 0
-215 -388 0
-217 -388 0
-218 -388 0
-219 -388 0
222 -388 0
-224 -388 0
-226 -388 0
-227 -388 0
-229 -388 0
-231 -388 0
232 -388 0
233 -388 0
-234 -388 0
-239 -388 0
-253 -388 0
-258 -388 0
259 -388 0
-260 -388 0
264 -388 0
-266 -388 0
-267 -388 0
-270 -388 0
-271 -388 0
272 -388 0
-274 -388 0
-277 -388 0
-279 -388 0
-280 -388 0
284 -388 0
-285 -388 0
-287 -388 0
288 -388 0
-303 -388 0
304 -388 0
-305 -388 0
-306 -388 0
310 -388 0
-311 -388 0
-312 -388 0
-313 -388 0
319 -388 0
-320 -388 0
-326 -388 0
327 -388 0
388 -389 0
255 -389 0
344 -390 0
389 390 -391 0
-31 -392 0
-44 -392 0
-51 -392 0
-55 -392 0
-58 -392 0
-59 -392 0
65 -392 0
-66 -392 0
-73 -392 0
-77 -392 0
-103 -392 0
-107 -392 0
-147 -392 0
-151 -392 0
-160 -392 0
-171 -392 0
-175 -392 0
-178 -392 0
-185 -392 0
-195 -392 0
198 -392 0
207 -392 0
-210 -392 0
-214 -392 0
-221 -392 0
-225 -392 0
-235 -392 0
-247 -392 0
248 -392 0
-249 -392 0
-291 -392 0
-316 -392 0
330 -392 0
-331 -392 0
-332 -392 0
391 -393 0
392 -393 0
393 -394 0
-323 -394 0
387 394 -395 0
395 -396 0
-193 -396 0
386 396 -397 0
397 -398 0
-286 -398 0
373 398 -399 0
399 -400 0
-194 -400 0
372 400 -401 0
401 -402 0
371 402 -403 0
-153 -404 0
-200 -404 0
-246 -404 0
-263 -404 0
-308 -404 0
-315 -404 0
-322 -404 0
-329 -404 0
-337 -404 0
-338 -404 0
-339 -404 0
-340 -404 0
403 -405 0
404 -405 0
405 -406 0
336 -406 0
344 -407 0
-31 -408 0
-32 -408 0
33 -408 0
-34 -408 0
39 -408 0
-40 -408 0
-41 -408 0
-42 -408 0
-45 -408 0
-47 -408 0
48 -408 0
-49 -408 0
-52 -408 0
-53 -408 0
-55 -408 0
56 -408 0
59 -408 0
-61 -408 0
-63 -408 0
-73 -408 0
-74 -408 0
-75 -408 0
76 -408 0
-87 -408 0
88 -408 0
-89 -408 0
-90 -408 0
93 -408 0
-96 -408 0
-97 -408 0
-100 -408 0
101 -408 0
-103 -408 0
-104 -408 0
-107 -408 0
-108 -408 0
-109 -408 0
111 -408 0
-120 -408 0
123 -408 0
-124 -408 0
-125 -408 0
-126 -408 0
-130 -408 0
-131 -408 0
132 -408 0
140 -408 0
-143 -408 0
-144 -408 0
-146 -408 0
151 -408 0
-152 -408 0
153 -408 0
-157 -408 0
-159 -408 0
-170 -408 0
172 -408 0
-173 -408 0
-177 -408 0
178 -408 0
-179 -408 0
180 -408 0
-184 -408 0
-185 -408 0
-200 -408 0
204 -408 0
-206 -408 0
-213 -408 0
214 -408 0
-215 -408 0
-218 -408 0
219 -408 0
-221 -408 0
-225 -408 0
-226 -408 0
227 -408 0
-229 -408 0
-232 -408 0
-234 -408 0
-235 -408 0
239 -408 0
-246 -408 0
-248 -408 0
249 -408 0
258 -408 0
-259 -408 0
-260 -408 0
-263 -408 0
-266 -408 0
267 -408 0
-272 -408 0
-274 -408 0
277 -408 0
287 -408 0
-288 -408 0
-303 -408 0
304 -408 0
-305 -408 0
-306 -408 0
310 -408 0
-311 -408 0
-312 -408 0
-313 -408 0
-315 -408 0
-319 -408 0
320 -408 0
326 -408 0
-327 -408 0
-331 -408 0
-332 -408 0
408 -409 0
329 -409 0
344 -410 0
409 410 -411 0
-44 -412 0
-58 -412 0
-77 -412 0
-122 -412 0
-154 -412 0
-156 -412 0
-160 -412 0
162 -412 0
-247 -412 0
-270 -412 0
-308 -412 0
-316 -412 0
337 -412 0
-338 -412 0
-339 -412 0
411 -413 0
412 -413 0
413 -414 0
65 -414 0
344 -415 0
414 415 -416 0
416 -417 0
-323 -417 0
407 417 -418 0
-66 -419 0
-175 -419 0
207 -419 0
-210 -419 0
-217 -419 0
-224 -419 0
-231 -419 0
-253 -419 0
-291 -419 0
-340 -419 0
418 -420 0
419 -420 0
420 -421 0
255 -421 0
344 -422 0
344 -423 0
32 -424 0
-33 -424 0
-34 -424 0
-39 -424 0
-40 -424 0
-41 -424 0
42 -424 0
44 -424 0
-47 -424 0
-48 -424 0
-49 -424 0
-53 -424 0
55 -424 0
-56 -424 0
61 -424 0
-63 -424 0
-73 -424 0
-74 -424 0
-75 -424 0
-76 -424 0
77 -424 0
-87 -424 0
88 -424 0
-89 -424 0
96 -424 0
-97 -424 0
100 -424 0
-101 -424 0
-103 -424 0
-104 -424 0
108 -424 0
-109 -424 0
-111 -424 0
-122 -424 0
-123 -424 0
124 -424 0
-126 -424 0
-130 -424 0
-131 -424 0
132 -424 0
143 -424 0
-144 -424 0
149 -424 0
-152 -424 0
153 -424 0
-156 -424 0
-157 -424 0
-159 -424 0
168 -424 0
-170 -424 0
-172 -424 0
-173 -424 0
-175 -424 0
177 -424 0
-179 -424 0
180 -424 0
-184 -424 0
-200 -424 0
-204 -424 0
206 -424 0
213 -424 0
-217 -424 0
219 -424 0
-224 -424 0
-225 -424 0
-226 -424 0
-227 -424 0
231 -424 0
-232 -424 0
239 -424 0
-258 -424 0
-259 -424 0
260 -424 0
-263 -424 0
266 -424 0
-267 -424 0
272 -424 0
-274 -424 0
-277 -424 0
-287 -424 0
-288 -424 0
291 -424 0
-304 -424 0
305 -424 0
-306 -424 0
-311 -424 0
-312 -424 0
313 -424 0
318 -424 0
-319 -424 0
-320 -424 0
424 -425 0
-234 -425 0
423 425 -426 0
-58 -427 0
-93 -427 0
-146 -427 0
-218 -427 0
-270 -427 0
-303 -427 0
-308 -427 0
-316 -427 0
324 -427 0
-327 -427 0
-331 -427 0
-332 -427 0
337 -427 0
-340 -427 0
426 -428 0
427 -428 0
428 -429 0
329 -429 0
-32 -430 0
33 -430 0
-34 -430 0
39 -430 0
-40 -430 0
-41 -430 0
-42 -430 0
-44 -430 0
-47 -430 0
-48 -430 0
49 -430 0
-53 -430 0
55 -430 0
-56 -430 0
58 -430 0
-61 -430 0
-63 -430 0
-73 -430 0
-74 -430 0
75 -430 0
-76 -430 0
-77 -430 0
-87 -430 0
-88 -430 0
89 -430 0
93 -430 0
-96 -430 0
-97 -430 0
-100 -430 0
-101 -430 0
-103 -430 0
104 -430 0
108 -430 0
-109 -430 0
-111 -430 0
122 -430 0
-123 -430 0
-124 -430 0
-126 -430 0
-130 -430 0
131 -430 0
-132 -430 0
143 -430 0
-144 -430 0
146 -430 0
-152 -430 0
-153 -430 0
-156 -430 0
-157 -430 0
159 -430 0
-170 -430 0
172 -430 0
-173 -430 0
175 -430 0
-177 -430 0
-179 -430 0
-180 -430 0
184 -430 0
200 -430 0
-204 -430 0
-206 -430 0
-213 -430 0
217 -430 0
-218 -430 0
-219 -430 0
-224 -430 0
225 -430 0
226 -430 0
-227 -430 0
-231 -430 0
-232 -430 0
234 -430 0
-239 -430 0
258 -430 0
-259 -430 0
-260 -430 0
-263 -430 0
-266 -430 0
267 -430 0
-270 -430 0
-272 -430 0
-274 -430 0
277 -430 0
287 -430 0
-288 -430 0
-291 -430 0
303 -430 0
-304 -430 0
-305 -430 0
-306 -430 0
308 -430 0
-311 -430 0
-312 -430 0
-313 -430 0
316 -430 0
-319 -430 0
-320 -430 0
327 -430 0
-331 -430 0
332 -430 0
-337 -430 0
340 -430 0
430 -431 0
-329 -431 0
429 431 -432 0
-31 -433 0
-45 -433 0
-52 -433 0
-59 -433 0
66 -433 0
-107 -433 0
-125 -433 0
-151 -433 0
-178 -433 0
-185 -433 0
-207 -433 0
210 -433 0
-214 -433 0
-221 -433 0
-235 -433 0
-246 -433 0
248 -433 0
-315 -433 0
-338 -433 0
-339 -433 0
432 -434 0
433 -434 0
434 -435 0
-323 -435 0
422 435 -436 0
-65 -437 0
-90 -437 0
-120 -437 0
-140 -437 0
-154 -437 0
160 -437 0
-162 -437 0
-215 -437 0
-229 -437 0
-247 -437 0
-249 -437 0
253 -437 0
-310 -437 0
-326 -437 0
436 -438 0
437 -438 0
438 -439 0
-255 -439 0
421 439 -440 0
-51 -441 0
-95 -441 0
-147 -441 0
-167 -441 0
-181 -441 0
-193 -441 0
-195 -441 0
-198 -441 0
-201 -441 0
-222 -441 0
-286 -441 0
-330 -441 0
440 -442 0
441 -442 0
442 -443 0
194 -443 0
31 -444 0
-32 -444 0
-33 -444 0
-34 -444 0
-39 -444 0
-40 -444 0
-41 -444 0
42 -444 0
-45 -444 0
48 -444 0
-49 -444 0
-52 -444 0
53 -444 0
-55 -444 0
-56 -444 0
-59 -444 0
61 -444 0
-63 -444 0
-73 -444 0
74 -444 0
-75 -444 0
-76 -444 0
-87 -444 0
88 -444 0
-89 -444 0
-90 -444 0
-93 -444 0
-95 -444 0
-96 -444 0
97 -444 0
-100 -444 0
-101 -444 0
103 -444 0
-104 -444 0
107 -444 0
-108 -444 0
-109 -444 0
-111 -444 0
-120 -444 0
-123 -444 0
124 -444 0
126 -444 0
-130 -444 0
-131 -444 0
-132 -444 0
143 -444 0
-144 -444 0
-147 -444 0
-151 -444 0
152 -444 0
-153 -444 0
154 -444 0
-157 -444 0
-159 -444 0
167 -444 0
-170 -444 0
-172 -444 0
177 -444 0
-178 -444 0
-181 -444 0
-184 -444 0
185 -444 0
-201 -444 0
-204 -444 0
206 -444 0
-213 -444 0
-214 -444 0
218 -444 0
-219 -444 0
-221 -444 0
222 -444 0
-225 -444 0
227 -444 0
-229 -444 0
-232 -444 0
235 -444 0
-239 -444 0
246 -444 0
-247 -444 0
-248 -444 0
-249 -444 0
-258 -444 0
259 -444 0
-260 -444 0
-263 -444 0
-266 -444 0
-267 -444 0
270 -444 0
-272 -444 0
274 -444 0
-277 -444 0
-287 -444 0
-288 -444 0
-303 -444 0
-304 -444 0
305 -444 0
-306 -444 0
-310 -444 0
-311 -444 0
-312 -444 0
313 -444 0
331 -444 0
-332 -444 0
-338 -444 0
339 -444 0
444 -445 0
286 -445 0
344 -446 0
445 446 -447 0
-122 -448 0
-156 -448 0
162 -448 0
-217 -448 0
-224 -448 0
-231 -448 0
-253 -448 0
-291 -448 0
-340 -448 0
447 -449 0
448 -449 0
449 -450 0
255 -450 0
344 -451 0
450 451 -452 0
-47 -453 0
-125 -453 0
-146 -453 0
-173 -453 0
-180 -453 0
-198 -453 0
-200 -453 0
-215 -453 0
-226 -453 0
315 -453 0
-319 -453 0
-320 -453 0
-329 -453 0
452 -454 0
453 -454 0
454 -455 0
193 -455 0
344 -456 0
455 456 -457 0
-140 -458 0
-179 -458 0
-234 -458 0
-316 -458 0
-326 -458 0
-327 -458 0
-330 -458 0
-337 -458 0
457 -459 0
458 -459 0
459 -460 0
323 -460 0
344 -461 0
460 461 -462 0
-44 -463 0
-51 -463 0
-58 -463 0
65 -463 0
-66 -463 0
-77 -463 0
-160 -463 0
-175 -463 0
-195 -463 0
207 -463 0
-210 -463 0
-308 -463 0
462 -464 0
463 -464 0
464 -465 0
-194 -465 0
443 465 -466 0
-60 -467 0
-139 -467 0
-171 -467 0
-233 -467 0
-264 -467 0
-271 -467 0
-279 -467 0
-280 -467 0
-284 -467 0
-285 -467 0
-322 -467 0
466 -468 0
467 -468 0
468 -469 0
278 -469 0
344 -470 0
344 -471 0
-31 -472 0
32 -472 0
-33 -472 0
-34 -472 0
-39 -472 0
40 -472 0
-41 -472 0
-42 -472 0
-45 -472 0
-47 -472 0
-48 -472 0
49 -472 0
-52 -472 0
-53 -472 0
55 -472 0
-56 -472 0
59 -472 0
-60 -472 0
-61 -472 0
-63 -472 0
73 -472 0
-74 -472 0
-75 -472 0
-76 -472 0
-87 -472 0
-88 -472 0
-89 -472 0
90 -472 0
-93 -472 0
96 -472 0
-97 -472 0
-100 -472 0
101 -472 0
-103 -472 0
-104 -472 0
-107 -472 0
109 -472 0
-111 -472 0
120 -472 0
-123 -472 0
-124 -472 0
-125 -472 0
-126 -472 0
-130 -472 0
131 -472 0
-132 -472 0
-139 -472 0
143 -472 0
-144 -472 0
-146 -472 0
-151 -472 0
152 -472 0
153 -472 0
-154 -472 0
-157 -472 0
-159 -472 0
170 -472 0
-171 -472 0
-172 -472 0
173 -472 0
-177 -472 0
-179 -472 0
-180 -472 0
-184 -472 0
185 -472 0
-200 -472 0
-204 -472 0
206 -472 0
-213 -472 0
-214 -472 0
215 -472 0
-218 -472 0
-219 -472 0
-221 -472 0
225 -472 0
226 -472 0
-227 -472 0
-229 -472 0
-232 -472 0
-233 -472 0
235 -472 0
-239 -472 0
247 -472 0
-248 -472 0
-249 -472 0
-259 -472 0
-260 -472 0
263 -472 0
-264 -472 0
266 -472 0
-267 -472 0
-270 -472 0
-271 -472 0
274 -472 0
-277 -472 0
285 -472 0
-287 -472 0
-288 -472 0
-303 -472 0
-304 -472 0
-305 -472 0
306 -472 0
-310 -472 0
-311 -472 0
312 -472 0
-313 -472 0
-315 -472 0
316 -472 0
-319 -472 0
-320 -472 0
322 -472 0
-326 -472 0
-327 -472 0
331 -472 0
-332 -472 0
-337 -472 0
-338 -472 0
339 -472 0
472 -473 0
-329 -473 0
471 473 -474 0
-108 -475 0
-140 -475 0
-178 -475 0
-234 -475 0
-258 -475 0
-272 -475 0
-280 -475 0
-284 -475 0
474 -476 0
475 -476 0
476 -477 0
279 -477 0
344 -478 0
477 478 -479 0
-122 -480 0
-156 -480 0
162 -480 0
-217 -480 0
-224 -480 0
-231 -480 0
-246 -480 0
-253 -480 0
255 -480 0
-291 -480 0
-340 -480 0
479 -481 0
480 -481 0
481 -482 0
-323 -482 0
470 482 -483 0
-44 -484 0
-58 -484 0
-66 -484 0
-77 -484 0
-160 -484 0
-175 -484 0
207 -484 0
-210 -484 0
-308 -484 0
483 -485 0
484 -485 0
485 -486 0
65 -486 0
344 -487 0
486 487 -488 0
488 -489 0
441 -489 0
489 -490 0
194 -490 0
-31 -491 0
-32 -491 0
33 -491 0
-34 -491 0
-39 -491 0
-40 -491 0
41 -491 0
-42 -491 0
-44 -491 0
45 -491 0
-47 -491 0
-48 -491 0
-49 -491 0
-51 -491 0
-52 -491 0
-53 -491 0
-55 -491 0
56 -491 0
-58 -491 0
-59 -491 0
60 -491 0
-61 -491 0
-63 -491 0
-66 -491 0
-73 -491 0
-74 -491 0
-75 -491 0
76 -491 0
-77 -491 0
87 -491 0
-88 -491 0
-89 -491 0
-90 -491 0
-93 -491 0
95 -491 0
-96 -491 0
-97 -491 0
100 -491 0
-101 -491 0
-103 -491 0
-104 -491 0
-107 -491 0
-108 -491 0
-109 -491 0
111 -491 0
-120 -491 0
-122 -491 0
-123 -491 0
-124 -491 0
125 -491 0
-126 -491 0
-130 -491 0
131 -491 0
-132 -491 0
139 -491 0
-140 -491 0
-143 -491 0
-144 -491 0
-146 -491 0
147 -491 0
-151 -491 0
-152 -491 0
-153 -491 0
-154 -491 0
-156 -491 0
157 -491 0
-159 -491 0
-160 -491 0
162 -491 0
-167 -491 0
170 -491 0
-171 -491 0
-172 -491 0
-173 -491 0
-175 -491 0
-177 -491 0
-178 -491 0
179 -491 0
-180 -491 0
181 -491 0
-184 -491 0
-185 -491 0
-193 -491 0
-195 -491 0
198 -491 0
200 -491 0
-201 -491 0
-204 -491 0
-206 -491 0
207 -491 0
-210 -491 0
-213 -491 0
-214 -491 0
215 -491 0
-217 -491 0
-218 -491 0
219 -491 0
-221 -491 0
-222 -491 0
-224 -491 0
-225 -491 0
-226 -491 0
-227 -491 0
-229 -491 0
-231 -491 0
232 -491 0
-233 -491 0
234 -491 0
-235 -491 0
-239 -491 0
-246 -491 0
-247 -491 0
248 -491 0
-249 -491 0
-253 -491 0
255 -491 0
258 -491 0
-259 -491 0
-260 -491 0
-263 -491 0
-264 -491 0
266 -491 0
-267 -491 0
-270 -491 0
271 -491 0
-272 -491 0
-274 -491 0
-277 -491 0
-279 -491 0
-280 -491 0
284 -491 0
-285 -491 0
-286 -491 0
-287 -491 0
288 -491 0
-291 -491 0
303 -491 0
-304 -491 0
-305 -491 0
-306 -491 0
-308 -491 0
-310 -491 0
311 -491 0
-312 -491 0
-313 -491 0
-315 -491 0
-316 -491 0
319 -491 0
-320 -491 0
-322 -491 0
-323 -491 0
-326 -491 0
327 -491 0
329 -491 0
-330 -491 0
-331 -491 0
-332 -491 0
337 -491 0
-338 -491 0
-339 -491 0
-340 -491 0
491 -492 0
65 -492 0
344 -493 0
-31 -494 0
-32 -494 0
-33 -494 0
34 -494 0
-39 -494 0
40 -494 0
-42 -494 0
44 -494 0
-45 -494 0
-48 -494 0
-49 -494 0
-51 -494 0
-52 -494 0
-53 -494 0
-55 -494 0
56 -494 0
-58 -494 0
-59 -494 0
60 -494 0
-61 -494 0
-63 -494 0
66 -494 0
-73 -494 0
-74 -494 0
-75 -494 0
76 -494 0
-77 -494 0
87 -494 0
-88 -494 0
-89 -494 0
-93 -494 0
95 -494 0
-96 -494 0
-97 -494 0
100 -494 0
-101 -494 0
-103 -494 0
-104 -494 0
-107 -494 0
-108 -494 0
-109 -494 0
111 -494 0
-122 -494 0
123 -494 0
-124 -494 0
-125 -494 0
129 -494 0
-130 -494 0
-131 -494 0
-132 -494 0
-143 -494 0
-144 -494 0
145 -494 0
151 -494 0
-152 -494 0
167 -494 0
-170 -494 0
-171 -494 0
-172 -494 0
-175 -494 0
177 -494 0
-178 -494 0
-179 -494 0
-181 -494 0
-184 -494 0
-185 -494 0
186 -494 0
-201 -494 0
202 -494 0
-204 -494 0
-206 -494 0
-207 -494 0
210 -494 0
-213 -494 0
-214 -494 0
-217 -494 0
218 -494 0
-219 -494 0
221 -494 0
-222 -494 0
-224 -494 0
-225 -494 0
-226 -494 0
-227 -494 0
-229 -494 0
231 -494 0
-232 -494 0
233 -494 0
-234 -494 0
-235 -494 0
-239 -494 0
247 -494 0
-248 -494 0
-249 -494 0
253 -494 0
-258 -494 0
260 -494 0
-263 -494 0
-264 -494 0
-266 -494 0
-267 -494 0
270 -494 0
271 -494 0
-272 -494 0
-274 -494 0
-277 -494 0
-279 -494 0
280 -494 0
-284 -494 0
286 -494 0
-287 -494 0
-288 -494 0
-291 -494 0
303 -494 0
-304 -494 0
-305 -494 0
-306 -494 0
308 -494 0
-311 -494 0
-312 -494 0
-313 -494 0
-315 -494 0
316 -494 0
-319 -494 0
-320 -494 0
-322 -494 0
-323 -494 0
-326 -494 0
327 -494 0
-331 -494 0
332 -494 0
-337 -494 0
-338 -494 0
-339 -494 0
340 -494 0
494 -495 0
-255 -495 0
493 495 -496 0
-41 -497 0
-47 -497 0
-126 -497 0
-139 -497 0
-146 -497 0
153 -497 0
-156 -497 0
-157 -497 0
-159 -497 0
-173 -497 0
-180 -497 0
-195 -497 0
-198 -497 0
-200 -497 0
-215 -497 0
-246 -497 0
-259 -497 0
-285 -497 0
-329 -497 0
-330 -497 0
496 -498 0
497 -498 0
498 -499 0
193 -499 0
344 -500 0
-31 -501 0
32 -501 0
-33 -501 0
-34 -501 0
-39 -501 0
-40 -501 0
41 -501 0
-42 -501 0
-44 -501 0
-45 -501 0
47 -501 0
-48 -501 0
-49 -501 0
51 -501 0
-52 -501 0
-53 -501 0
-56 -501 0
-58 -501 0
-59 -501 0
-60 -501 0
-61 -501 0
63 -501 0
66 -501 0
-73 -501 0
74 -501 0
-75 -501 0
-76 -501 0
-77 -501 0
-87 -501 0
88 -501 0
-89 -501 0
-93 -501 0
-95 -501 0
-96 -501 0
97 -501 0
-100 -501 0
-101 -501 0
103 -501 0
-104 -501 0
107 -501 0
-108 -501 0
-109 -501 0
-111 -501 0
-122 -501 0
-123 -501 0
124 -501 0
-125 -501 0
-126 -501 0
130 -501 0
-131 -501 0
-132 -501 0
-143 -501 0
-144 -501 0
-146 -501 0
-151 -501 0
152 -501 0
156 -501 0
-157 -501 0
-159 -501 0
-167 -501 0
170 -501 0
-171 -501 0
-172 -501 0
-173 -501 0
-175 -501 0
-177 -501 0
-178 -501 0
179 -501 0
180 -501 0
-181 -501 0
-184 -501 0
-185 -501 0
195 -501 0
-198 -501 0
201 -501 0
-204 -501 0
-206 -501 0
-207 -501 0
210 -501 0
213 -501 0
-214 -501 0
-217 -501 0
-218 -501 0
-221 -501 0
224 -501 0
-225 -501 0
-227 -501 0
-231 -501 0
232 -501 0
-234 -501 0
235 -501 0
-239 -501 0
-258 -501 0
-259 -501 0
-260 -501 0
263 -501 0
-264 -501 0
266 -501 0
-267 -501 0
-270 -501 0
-271 -501 0
-272 -501 0
274 -501 0
-277 -501 0
279 -501 0
-280 -501 0
-284 -501 0
285 -501 0
-286 -501 0
-287 -501 0
-288 -501 0
-291 -501 0
303 -501 0
-304 -501 0
-305 -501 0
-306 -501 0
308 -501 0
-311 -501 0
-312 -501 0
-313 -501 0
-315 -501 0
316 -501 0
-319 -501 0
-320 -501 0
-322 -501 0
327 -501 0
-329 -501 0
-330 -501 0
-331 -501 0
332 -501 0
-337 -501 0
-338 -501 0
-339 -501 0
340 -501 0
501 -502 0
139 -502 0
344 -503 0
-31 -504 0
-32 -504 0
-33 -504 0
34 -504 0
-39 -504 0
-41 -504 0
42 -504 0
-44 -504 0
-45 -504 0
47 -504 0
-48 -504 0
-49 -504 0
-52 -504 0
53 -504 0
-56 -504 0
58 -504 0
-59 -504 0
-60 -504 0
-61 -504 0
-63 -504 0
66 -504 0
-73 -504 0
-74 -504 0
-75 -504 0
-76 -504 0
77 -504 0
87 -504 0
-88 -504 0
-89 -504 0
93 -504 0
-95 -504 0
-96 -504 0
-97 -504 0
-100 -504 0
-101 -504 0
103 -504 0
-104 -504 0
-107 -504 0
-108 -504 0
109 -504 0
-111 -504 0
-122 -504 0
123 -504 0
-124 -504 0
-125 -504 0
-130 -504 0
-131 -504 0
132 -504 0
-143 -504 0
144 -504 0
156 -504 0
-157 -504 0
-159 -504 0
167 -504 0
-170 -504 0
-171 -504 0
173 -504 0
-175 -504 0
-177 -504 0
-178 -504 0
-179 -504 0
-180 -504 0
-181 -504 0
184 -504 0
-185 -504 0
195 -504 0
-198 -504 0
-201 -504 0
-204 -504 0
206 -504 0
210 -504 0
-213 -504 0
217 -504 0
-218 -504 0
221 -504 0
-224 -504 0
227 -504 0
-231 -504 0
-232 -504 0
-234 -504 0
-235 -504 0
239 -504 0
-258 -504 0
259 -504 0
-260 -504 0
-263 -504 0
-264 -504 0
-266 -504 0
267 -504 0
-270 -504 0
271 -504 0
-272 -504 0
-274 -504 0
-277 -504 0
279 -504 0
-280 -504 0
-284 -504 0
-287 -504 0
-288 -504 0
291 -504 0
-303 -504 0
304 -504 0
-305 -504 0
-306 -504 0
-311 -504 0
312 -504 0
-313 -504 0
-319 -504 0
320 -504 0
338 -504 0
-339 -504 0
-340 -504 0
504 -505 0
-207 -505 0
503 505 -506 0
-40 -507 0
-51 -507 0
-126 -507 0
146 -507 0
-151 -507 0
-152 -507 0
-172 -507 0
-214 -507 0
-225 -507 0
-285 -507 0
-286 -507 0
-308 -507 0
-315 -507 0
-316 -507 0
322 -507 0
-327 -507 0
-329 -507 0
330 -507 0
-331 -507 0
-332 -507 0
-337 -507 0
506 -508 0
507 -508 0
508 -509 0
-139 -509 0
502 509 -510 0
510 -511 0
-323 -511 0
500 511 -512 0
-55 -513 0
-153 -513 0
-200 -513 0
-215 -513 0
-219 -513 0
-222 -513 0
-226 -513 0
-229 -513 0
-233 -513 0
246 -513 0
-247 -513 0
-248 -513 0
-249 -513 0
253 -513 0
-255 -513 0
-326 -513 0
512 -514 0
513 -514 0
514 -515 0
-193 -515 0
499 515 -516 0
-90 -517 0
-120 -517 0
-140 -517 0
-147 -517 0
-154 -517 0
160 -517 0
-162 -517 0
-310 -517 0
516 -518 0
517 -518 0
518 -519 0
-65 -519 0
492 519 -520 0
520 -521 0
-194 -521 0
490 521 -522 0
522 -523 0
-278 -523 0
469 523 -524 0
524 -525 0
-336 -525 0
526 -527 0
-199 -527 0
528 -530 0
1 0
2 0
3 0
4 0
5 0
6 0
7 0
-8 0
-9 0
-10 0
-11 0
-12 0
-13 0
-14 0
-15 0
-16 0
-17 0
-18 0
-19 0
-20 0
-21 0
-22 0
-23 0
-24 0
-25 0
-26 0
-27 0
-28 0
-29 0
-30 0
-35 0
-36 0
-37 0
-38 0
-43 0
-46 0
-50 0
-54 0
-57 0
-62 0
-64 0
-67 0
-68 0
-69 0
-70 0
-71 0
-72 0
-78 0
-79 0
-80 0
-81 0
-82 0
-83 0
-84 0
-85 0
-86 0
-91 0
-92 0
-94 0
-98 0
-99 0
-102 0
-105 0
-106 0
-110 0
112 0
-113 0
-114 0
-115 0
-116 0
-117 0
-118 0
-119 0
-121 0
-127 0
-128 0
-133 0
-134 0
-135 0
-136 0
-137 0
-138 0
-141 0
-142 0
-148 0
-150 0
-155 0
-158 0
-161 0
-163 0
-164 0
-165 0
-166 0
-169 0
-174 0
-176 0
-182 0
-183 0
-187 0
-188 0
-189 0
-190 0
-191 0
-192 0
-196 0
-197 0
-203 0
-205 0
-208 0
-209 0
-211 0
-212 0
-216 0
-220 0
-223 0
-228 0
-230 0
-236 0
-237 0
-238 0
-240 0
-241 0
-242 0
-243 0
-244 0
-245 0
-250 0
-251 0
-252 0
-254 0
-256 0
-257 0
-261 0
-262 0
-265 0
-268 0
-269 0
-273 0
-275 0
-276 0
-281 0
-282 0
-283 0
-289 0
-290 0
-292 0
-293 0
-294 0
-295 0
-296 0
-297 0
298 0
-299 0
-300 0
-301 0
-302 0
-307 0
-309 0
-314 0
-317 0
-321 0
-325 0
-328 0
-333 0
-334 0
-335 0
-341 0
-342 0
-343 0
-529 530 0
-255 368 376 389 421 450 480 491 493 0
-459 460 0
31 346 374 376 392 408 433 472 491 494 501 504 0
-288 388 491 0
231 368 374 376 388 419 430 448 480 491 501 504 0
224 368 376 388 419 424 430 448 480 491 494 504 0
-274 374 444 472 501 0
-494 495 0
217 368 374 376 388 419 424 448 480 491 494 501 0
-125 376 491 0
210 368 376 392 419 463 484 491 0
-375 383 0
195 368 384 392 441 463 491 497 0
-103 346 444 501 504 0
194 368 400 465 521 0
-312 359 472 504 0
179 368 374 388 408 424 430 458 472 494 504 0
-87 376 491 494 504 0
175 368 376 392 419 424 463 484 491 494 501 504 0
104 368 374 408 424 444 472 491 494 501 504 0
56 368 374 376 388 424 430 444 472 501 504 0
-492 520 0
-366 367 0
156 350 359 374 376 388 412 424 430 448 480 491 497 0
-229 346 359 0
-473 474 0
39 346 359 374 376 424 444 472 491 494 501 504 0
-284 388 491 0
-363 364 0
-360 361 0
-359 360 0
-323 359 375 387 407 422 460 470 500 0
286 359 398 441 446 491 501 507 0
-42 359 374 424 444 504 0
-435 436 0
246 362 404 408 433 480 491 497 0
-285 359 472 501 0
235 355 359 374 376 392 408 433 491 494 504 0
40 346 359 374 388 408 424 430 444 491 501 507 0
271 359 374 376 388 467 472 501 0
313 359 374 376 388 408 430 472 491 494 501 504 0
103 359 374 376 392 408 424 430 472 491 494 0
-267 359 408 430 504 0
-364 365 0
-263 359 472 501 0
-225 359 430 472 0
274 346 359 376 388 408 424 430 491 494 504 0
-437 438 0
221 359 374 392 408 433 444 472 491 501 0
-339 444 472 0
-129 494 0
218 359 374 376 388 408 427 430 472 491 501 504 0
-336 406 0
-214 359 374 408 0
331 346 359 380 392 408 427 430 491 494 501 507 0
-498 499 0
-109 359 472 504 0
-319 374 388 491 0
-432 434 0
173 359 384 388 408 424 430 453 491 497 501 0
120 359 374 376 388 408 437 444 491 517 0
330 368 374 441 458 491 497 501 0
-213 376 388 424 501 0
-482 483 0
108 359 374 380 408 444 475 491 494 501 504 0
-207 368 376 392 419 463 484 491 503 0
90 359 374 376 388 408 437 444 491 517 0
-89 359 374 388 430 0
181 346 359 388 441 444 494 501 504 0
171 359 374 392 467 472 491 494 501 504 0
-355 356 0
-60 359 374 491 494 0
-55 359 424 430 472 0
49 359 374 376 388 408 424 444 491 494 501 504 0
-47 359 388 501 504 0
260 359 374 388 408 430 444 472 491 501 504 0
32 359 374 376 388 408 430 444 491 494 504 0
227 355 359 374 376 388 424 430 472 491 494 501 0
-277 376 408 430 0
-279 358 380 477 501 504 0
229 374 376 388 408 437 444 472 491 494 513 0
-356 357 0
247 355 380 392 412 437 444 491 513 0
-206 374 424 444 472 504 0
279 355 360 374 388 467 478 491 494 0
-374 375 0
-31 359 444 0
287 346 359 374 388 424 444 472 491 494 501 504 0
-385 386 0
-272 359 388 424 0
222 346 359 374 376 441 491 494 513 0
-397 398 0
-340 430 494 501 0
-443 466 0
233 355 374 376 467 472 491 513 0
-74 359 444 501 0
-377 379 0
177 355 359 374 376 408 430 472 491 501 504 0
-479 481 0
311 346 359 388 408 424 430 444 472 494 501 504 0
34 346 359 374 408 424 430 444 472 491 501 0
-368 369 0
-194 372 443 490 0
44 355 359 374 380 392 412 430 463 484 491 501 504 0
-433 434 0
-76 408 491 494 0
157 346 359 376 408 424 430 444 472 497 501 504 0
-351 352 0
-162 350 359 376 388 412 448 480 491 0
-233 359 388 494 0
339 346 359 404 412 433 491 494 501 504 0
-222 388 444 0
122 350 359 376 388 412 424 448 480 491 494 501 504 0
332 374 380 392 408 427 444 472 491 507 0
-215 472 491 0
-361 363 0
-170 374 472 491 501 0
66 368 376 392 419 463 484 491 0
-159 346 359 430 0
58 350 359 374 376 392 412 427 463 484 491 494 501 0
170 346 359 376 388 408 424 430 444 494 504 0
-108 346 388 424 430 0
200 346 404 408 424 453 472 497 513 0
-318 424 0
151 346 359 392 433 444 472 491 501 507 0
-393 394 0
-457 459 0
-505 506 0
322 362 404 467 491 494 501 0
147 346 374 380 392 441 444 517 0
270 359 374 376 388 412 427 430 472 491 501 504 0
42 346 376 388 408 430 472 491 494 501 0
143 346 359 374 376 388 408 491 494 501 504 0
167 346 374 376 388 441 491 501 0
-75 376 388 430 0
-200 359 430 491 0
107 346 359 392 408 433 472 491 494 504 0
-430 431 0
-442 443 0
96 346 359 374 388 408 430 444 491 494 501 504 0
306 346 376 388 408 424 430 444 491 494 501 504 0
-517 518 0
160 350 359 376 392 412 463 484 491 0
253 368 376 388 419 448 480 491 0
291 368 380 392 419 430 448 480 491 494 501 0
-49 346 430 472 0
-120 346 472 0
-330 380 392 507 0
-523 524 0
206 368 376 388 408 430 491 494 501 0
-324 427 0
-167 359 444 494 504 0
74 346 374 376 388 408 424 430 472 491 494 504 0
55 346 374 376 392 408 444 491 494 513 0
-320 376 408 504 0
-447 449 0
139 346 359 388 467 472 497 509 0
-401 402 0
100 346 374 376 388 408 430 444 472 501 504 0
310 346 359 374 376 437 444 472 491 517 0
-193 386 455 499 0
-123 359 408 494 504 0
215 346 359 384 388 408 437 453 497 513 0
-286 346 373 445 494 0
-316 346 430 472 494 501 0
198 368 384 441 453 497 501 504 0
109 346 374 376 388 408 424 430 444 491 494 501 0
319 346 359 376 408 424 430 453 472 494 501 504 0
-202 494 0
-426 428 0
-439 440 0
-221 346 376 494 504 0
338 404 412 433 444 472 491 494 501 0
124 346 359 374 376 408 430 472 491 494 504 0
-217 430 504 0
-315 359 453 0
288 346 359 374 376 408 424 430 444 472 494 501 504 0
-32 346 424 472 501 0
-239 374 376 408 424 504 0
-512 514 0
-144 346 359 504 0
-441 442 489 0
-271 346 491 494 504 0
-310 388 408 0
132 346 359 376 430 444 472 491 494 501 0
41 359 374 376 388 408 424 430 444 472 497 504 0
-511 512 0
75 346 359 374 408 424 444 472 491 494 501 504 0
-491 492 0
249 346 359 374 392 437 444 472 491 494 513 0
131 346 359 374 376 388 408 424 444 494 501 504 0
-178 359 408 0
-391 393 0
-331 374 444 472 0
-97 359 444 501 0
-417 418 0
-280 346 359 374 494 0
126 346 374 376 388 408 424 430 472 491 497 501 507 0
336 368 525 0
-219 408 424 491 0
-218 346 444 494 0
125 346 359 374 388 408 433 453 472 494 501 504 0
53 346 359 374 388 408 424 430 472 491 494 501 0
-350 351 0
-395 396 0
-204 376 408 0
-424 425 0
-291 374 424 504 0
48 346 359 376 388 424 430 472 491 494 501 504 0
-313 346 424 444 0
-463 464 0
193 368 396 441 456 491 515 0
-101 374 408 472 0
-311 374 376 491 0
-90 346 472 0
329 346 359 404 410 431 453 473 497 501 507 0
-362 363 0
47 346 384 408 424 430 453 472 491 497 0
-526 527 0
33 346 359 376 388 424 444 472 494 501 504 0
-421 440 0
-425 426 0
-146 347 388 430 507 0
-168 424 0
-501 502 0
-52 346 388 0
225 346 374 380 392 408 424 444 491 494 501 507 0
89 346 376 408 424 444 472 491 494 501 504 0
-488 489 0
-186 494 0
219 346 359 374 376 388 430 444 472 494 513 0
-337 412 427 491 0
172 368 374 376 424 444 472 491 494 501 507 0
-499 516 0
-524 525 0
266 346 359 374 376 388 408 430 444 494 504 0
-160 374 437 517 0
59 346 359 374 376 392 433 444 491 494 501 504 0
-171 346 376 0
-278 345 371 469 0
-448 449 0
76 346 359 374 376 388 424 430 444 472 501 504 0
-130 346 376 501 0
-73 346 472 0
87 346 359 374 388 408 424 430 444 472 501 0
-180 388 408 424 501 0
88 346 359 374 376 388 430 472 491 494 504 0
-181 374 376 491 0
214 346 376 392 433 444 472 491 494 501 507 0
-332 346 359 430 494 501 0
-122 374 430 0
-304 388 408 504 0
61 359 374 376 388 408 430 472 491 494 501 504 0
-483 485 0
178 346 374 380 392 433 444 475 491 494 501 504 0
180 346 359 384 430 453 472 491 497 504 0
-184 346 359 430 504 0
185 346 359 374 376 392 408 433 491 494 501 504 0
60 346 376 388 467 472 501 504 0
-303 376 430 491 494 501 0
-93 388 408 430 504 0
-367 369 0
258 346 359 380 388 424 444 475 494 501 504 0
97 346 374 376 388 408 424 430 472 491 494 504 0
-477 479 0
204 346 359 374 388 424 430 444 472 491 494 501 504 0
-322 346 472 507 0
232 346 359 374 376 408 424 430 444 472 494 504 0
248 346 359 374 376 408 444 472 494 513 0
-486 488 0
63 346 359 374 408 424 430 444 472 491 494 504 0
-306 359 374 472 0
-96 376 424 472 0
259 346 359 374 376 408 424 430 472 491 497 501 0
-260 346 376 424 494 0
-480 481 0
337 346 359 404 430 458 472 494 501 507 0
263 346 404 408 424 430 444 491 494 504 0
267 346 374 376 388 424 444 472 491 494 501 0
316 362 374 380 392 412 427 458 491 507 0
-199 370 0
-270 346 444 494 0
-305 346 424 444 0
-365 366 0
272 346 374 380 408 430 444 475 491 494 501 504 0
-472 473 0
340 368 404 419 427 448 480 491 504 0
-234 357 423 430 491 0
-39 388 408 430 0
277 346 359 374 388 424 444 472 491 494 501 504 0
-33 374 408 430 491 0
-246 346 444 513 0
-495 496 0
284 346 359 374 380 467 475 494 501 504 0
-40 376 472 494 0
-235 444 472 501 0
-247 359 374 472 494 0
285 346 384 388 467 491 497 507 0
-41 346 491 501 0
-458 459 0
312 346 374 376 388 408 424 430 444 491 494 501 0
-195 501 504 0
140 368 374 380 437 458 475 491 517 0
-449 450 0
320 346 359 374 388 424 430 453 472 491 494 501 0
152 368 374 376 388 408 424 430 491 494 507 0
-210 374 433 494 501 504 0
154 346 359 374 388 412 437 472 491 517 0
45 346 359 374 388 408 433 444 472 494 501 504 0
-352 354 0
51 350 359 380 392 441 463 491 494 507 0
-413 414 0
-346 347 0
123 346 374 376 388 424 430 444 472 491 501 0
-357 365 0
-347 349 0
-412 413 0
-58 430 504 0
146 348 359 384 408 427 453 472 491 497 501 0
111 346 359 374 376 388 424 430 444 472 501 504 0
-485 486 0
326 368 374 388 437 458 472 491 494 513 0
-126 359 444 0
-369 370 0
-227 408 444 504 0
323 355 382 394 417 435 461 482 491 494 511 0
-465 466 0
-51 374 501 0
-382 383 0
-66 374 433 494 501 504 0
-77 374 424 504 0
-107 374 376 444 501 0
199 527 0
-132 374 388 408 424 504 0
144 374 376 388 408 424 430 444 472 491 494 501 0
-151 374 376 408 494 0
-157 374 388 491 0
159 374 376 388 408 424 444 472 491 497 501 504 0
162 374 437 517 0
-476 477 0
-175 374 430 0
-403 405 0
184 374 376 388 408 424 444 472 491 494 501 0
207 374 433 494 501 505 0
-224 374 501 0
-226 374 376 430 472 0
-253 374 437 494 513 0
255 374 390 439 451 495 513 0
-258 374 408 430 491 0
-468 469 0
-65 352 359 377 392 414 463 486 492 0
-264 374 376 388 0
-45 376 491 0
-53 376 444 504 0
305 359 374 376 388 408 430 472 491 494 501 504 0
-63 376 388 501 0
-104 376 388 430 0
-154 376 444 0
-179 376 491 501 0
-326 376 408 0
95 359 376 388 441 444 501 504 0
-376 377 0
315 346 404 408 433 472 491 494 501 507 0
-379 381 0
280 380 388 467 475 491 501 504 0
-231 424 494 0
-515 516 0
65 353 374 378 415 437 487 519 0
264 346 359 467 472 491 494 501 504 0
-381 382 0
-383 385 0
-384 385 0
-386 397 0
-462 464 0
-124 388 424 444 501 0
-140 388 408 0
-349 351 0
-172 388 408 430 0
101 355 359 376 388 424 430 444 491 494 501 504 0
-497 498 0
-177 388 424 444 494 0
234 364 374 380 388 408 425 458 475 494 501 504 0
-521 522 0
-232 388 491 501 0
-259 388 444 504 0
-327 388 430 491 494 501 0
-388 389 0
-201 346 388 501 0
-389 391 0
-248 392 433 491 0
-525 526 0
-392 393 0
-173 346 472 504 0
-249 376 408 0
-394 395 0
-460 462 0
-396 397 0
213 355 359 374 408 430 444 472 491 494 504 0
-464 465 0
-398 399 0
-466 468 0
-156 501 504 0
201 359 374 376 441 444 491 494 504 0
-400 401 0
73 359 374 376 392 408 424 430 444 491 494 501 504 0
-402 403 0
-404 405 0
-405 406 0
-88 408 424 444 501 0
-56 408 491 494 0
-59 408 472 0
-111 408 491 494 0
-453 454 0
-153 408 424 472 497 0
93 346 359 374 376 427 444 472 491 494 501 0
-408 409 0
-329 409 429 471 491 0
-409 411 0
-95 346 374 491 494 0
-411 413 0
-414 416 0
-338 346 359 504 0
-416 417 0
-418 420 0
-419 420 0
-452 454 0
-420 421 0
-100 359 424 491 494 0
-44 424 494 0
-143 424 430 444 472 0
-149 424 0
-266 424 472 491 501 0
-427 428 0
226 346 359 388 408 424 453 491 494 513 0
-428 429 0
-440 442 0
-429 432 0
308 350 359 404 412 427 463 484 491 507 0
-131 430 472 491 0
130 359 374 388 408 424 430 444 472 491 494 504 0
-308 430 494 501 0
-431 432 0
-434 435 0
-436 438 0
-438 439 0
-152 444 472 501 0
-185 444 472 0
-444 445 0
-198 392 491 0
-445 447 0
-450 452 0
-34 376 388 494 504 0
-454 455 0
-455 457 0
-287 376 408 430 0
-467 468 0
-380 381 0
-469 524 0
239 355 359 388 430 444 472 491 494 501 0
-474 476 0
-475 476 0
153 346 359 404 430 444 491 513 0
-48 374 408 444 0
-481 482 0
-147 359 491 0
-484 485 0
52 359 374 376 408 433 444 472 491 494 501 504 0
-489 490 0
-490 522 0
303 346 359 374 388 408 427 444 472 504 0
-61 346 424 444 0
-145 494 0
-496 498 0
77 350 359 376 392 412 430 463 484 491 494 501 0
-502 510 0
-354 356 0
-504 505 0
-506 508 0
-507 508 0
327 346 359 374 376 408 427 458 472 507 0
-508 509 0
-509 510 0
-139 374 376 491 502 0
-510 511 0
-513 514 0
-514 515 0
-516 518 0
-518 519 0
-519 520 0
-520 521 0
-522 523 0
304 346 359 374 376 424 430 444 472 491 494 501 0
-399 400 0
-1 529 0
